TIME 50
8378
13630
8272
13630
8342
13630
8219
13630
8551
13630
8343
13630
8717
13630
8235
13630
7456
13630
6097
13630
TIME 100
5789
13630
4967
13630
5036
13630
5110
13630
5327
13630
6861
13630
7332
13630
8461
13630
5404
13630
5675
13630
TIME 150
6174
13630
5664
13630
5855
13630
5287
13630
5671
13630
5084
13630
6054
13630
5973
13630
5827
13630
6094
13630
TIME 200
5479
13630
5457
13630
4821
13630
5347
13630
5250
13630
6230
13630
4829
13630
5177
13630
6216
13630
5837
13630
TIME 250
6500
13630
6653
13630
8872
13630
8986
13630
9175
13630
9105
13630
7084
13630
6373
13630
6121
13630
6264
13630
TIME 300
7037
13630
6261
13630
5915
13630
6451
13630
8607
13630
6446
13630
7191
13630
6825
13630
6628
13630
7213
13630
TIME 350
6892
13630
